nK = 1226;
nT = 4;
nI = 7;
L = 29;
TT = 266;
np = 1;
nc = 3;
b = [42, 51, 24, 38, 37, 27, 67];
d = [141, 137, 55, 150, 108, 141, 139];
m = [2.2, 1.2, 1.4, 2.5, 1.3, 1.2, 2];
pt = [0.24, 0.21, 0.32, 0.24];
st = [13.2, 8.61, 15.36, 12.96];
arc = {<1, 0, 1, 1, 0, 0, 0, [1, 1, 1, 1]>, <2, 1, 2, 1, 0, 0, 0, [1, 1, 1, 1]>, <3, 2, 3, 1, 0, 0, 0, [1, 1, 1, 1]>, <4, 3, 4, 1, 0, 0, 0, [1, 1, 1, 1]>, <5, 4, 5, 1, 0, 0, 0, [1, 1, 1, 1]>, <6, 5, 6, 1, 0, 0, 0, [1, 1, 1, 1]>, <7, 6, 7, 1, 0, 0, 0, [1, 1, 1, 1]>, <8, 7, 8, 1, 0, 0, 0, [1, 1, 1, 1]>, <9, 8, 9, 1, 0, 0, 0, [1, 1, 1, 1]>, <10, 9, 10, 1, 0, 0, 0, [1, 1, 1, 1]>, <11, 10, 11, 1, 0, 0, 0, [1, 1, 1, 1]>, <12, 11, 12, 1, 0, 0, 0, [1, 1, 1, 1]>, <13, 12, 13, 1, 0, 0, 0, [1, 1, 1, 1]>, <14, 13, 14, 1, 0, 0, 0, [1, 1, 1, 1]>, <15, 14, 15, 1, 0, 0, 0, [1, 1, 1, 1]>, <16, 15, 16, 1, 0, 0, 0, [1, 1, 1, 1]>, <17, 16, 17, 1, 0, 0, 0, [1, 1, 1, 1]>, <18, 17, 18, 1, 0, 0, 0, [1, 1, 1, 1]>, <19, 18, 19, 1, 0, 0, 0, [1, 1, 1, 1]>, <20, 19, 20, 1, 0, 0, 0, [1, 1, 1, 1]>, <21, 20, 21, 1, 0, 0, 0, [1, 1, 1, 1]>, <22, 21, 22, 1, 0, 0, 0, [1, 1, 1, 1]>, <23, 22, 23, 1, 0, 0, 0, [1, 1, 1, 1]>, <24, 23, 24, 1, 0, 0, 0, [1, 1, 1, 1]>, <25, 24, 25, 1, 0, 0, 0, [1, 1, 1, 1]>, <26, 25, 26, 1, 0, 0, 0, [1, 1, 1, 1]>, <27, 26, 27, 1, 0, 0, 0, [1, 1, 1, 1]>, <28, 27, 28, 1, 0, 0, 0, [1, 1, 1, 1]>, <29, 28, 29, 1, 0, 0, 0, [1, 1, 1, 1]>, <30, 0, 15, 15, 1, 0, 0, [1, 1, 0, 0]>, <31, 1, 16, 15, 1, 0, 0, [1, 1, 0, 0]>, <32, 2, 17, 15, 1, 0, 0, [1, 1, 0, 0]>, <33, 3, 18, 15, 1, 0, 0, [1, 1, 0, 0]>, <34, 4, 19, 15, 1, 0, 0, [1, 1, 0, 0]>, <35, 5, 20, 15, 1, 0, 0, [1, 1, 0, 0]>, <36, 6, 21, 15, 1, 0, 0, [1, 1, 0, 0]>, <37, 7, 22, 15, 1, 0, 0, [1, 1, 0, 0]>, <38, 8, 23, 15, 1, 0, 0, [1, 1, 0, 0]>, <39, 9, 24, 15, 1, 0, 0, [1, 1, 0, 0]>, <40, 10, 25, 15, 1, 0, 0, [1, 1, 0, 0]>, <41, 11, 26, 15, 1, 0, 0, [1, 1, 0, 0]>, <42, 12, 27, 15, 1, 0, 0, [1, 1, 0, 0]>, <43, 13, 28, 15, 1, 0, 0, [1, 1, 0, 0]>, <44, 14, 29, 15, 1, 0, 0, [1, 1, 0, 0]>, <45, 0, 18, 18, 2, 0, 1, [1, 0, 0, 1]>, <46, 1, 19, 18, 2, 0, 1, [1, 0, 0, 1]>, <47, 2, 20, 18, 2, 0, 1, [1, 0, 0, 1]>, <48, 3, 21, 18, 2, 0, 1, [1, 0, 0, 1]>, <49, 4, 22, 18, 2, 0, 1, [1, 0, 0, 1]>, <50, 5, 23, 18, 2, 0, 1, [1, 0, 0, 1]>, <51, 6, 24, 18, 2, 0, 1, [1, 0, 0, 1]>, <52, 7, 25, 18, 2, 0, 1, [1, 0, 0, 1]>, <53, 8, 26, 18, 2, 0, 1, [1, 0, 0, 1]>, <54, 9, 27, 18, 2, 0, 1, [1, 0, 0, 1]>, <55, 10, 28, 18, 2, 0, 1, [1, 0, 0, 1]>, <56, 11, 29, 18, 2, 0, 1, [1, 0, 0, 1]>, <57, 0, 17, 17, 3, 0, 0, [0, 0, 1, 1]>, <58, 1, 18, 17, 3, 0, 0, [0, 0, 1, 1]>, <59, 2, 19, 17, 3, 0, 0, [0, 0, 1, 1]>, <60, 3, 20, 17, 3, 0, 0, [0, 0, 1, 1]>, <61, 4, 21, 17, 3, 0, 0, [0, 0, 1, 1]>, <62, 5, 22, 17, 3, 0, 0, [0, 0, 1, 1]>, <63, 6, 23, 17, 3, 0, 0, [0, 0, 1, 1]>, <64, 7, 24, 17, 3, 0, 0, [0, 0, 1, 1]>, <65, 8, 25, 17, 3, 0, 0, [0, 0, 1, 1]>, <66, 9, 26, 17, 3, 0, 0, [0, 0, 1, 1]>, <67, 10, 27, 17, 3, 0, 0, [0, 0, 1, 1]>, <68, 11, 28, 17, 3, 0, 0, [0, 0, 1, 1]>, <69, 12, 29, 17, 3, 0, 0, [0, 0, 1, 1]>, <70, 0, 13, 13, 4, 0, 1, [0, 1, 1, 0]>, <71, 1, 14, 13, 4, 0, 1, [0, 1, 1, 0]>, <72, 2, 15, 13, 4, 0, 1, [0, 1, 1, 0]>, <73, 3, 16, 13, 4, 0, 1, [0, 1, 1, 0]>, <74, 4, 17, 13, 4, 0, 1, [0, 1, 1, 0]>, <75, 5, 18, 13, 4, 0, 1, [0, 1, 1, 0]>, <76, 7, 20, 13, 4, 0, 1, [0, 1, 1, 0]>, <77, 8, 21, 13, 4, 0, 1, [0, 1, 1, 0]>, <78, 9, 22, 13, 4, 0, 1, [0, 1, 1, 0]>, <79, 10, 23, 13, 4, 0, 1, [0, 1, 1, 0]>, <80, 11, 24, 13, 4, 0, 1, [0, 1, 1, 0]>, <81, 12, 25, 13, 4, 0, 1, [0, 1, 1, 0]>, <82, 13, 26, 13, 4, 0, 1, [0, 1, 1, 0]>, <83, 14, 27, 13, 4, 0, 1, [0, 1, 1, 0]>, <84, 15, 28, 13, 4, 0, 1, [0, 1, 1, 0]>, <85, 16, 29, 13, 4, 0, 1, [0, 1, 1, 0]>, <86, 0, 15, 15, 5, 1, 0, [0, 1, 1, 0]>, <87, 1, 16, 15, 5, 1, 0, [0, 1, 1, 0]>, <88, 2, 17, 15, 5, 1, 0, [0, 1, 1, 0]>, <89, 3, 18, 15, 5, 1, 0, [0, 1, 1, 0]>, <90, 4, 19, 15, 5, 1, 0, [0, 1, 1, 0]>, <91, 5, 20, 15, 5, 1, 0, [0, 1, 1, 0]>, <92, 6, 21, 15, 5, 1, 0, [0, 1, 1, 0]>, <93, 7, 22, 15, 5, 1, 0, [0, 1, 1, 0]>, <94, 8, 23, 15, 5, 1, 0, [0, 1, 1, 0]>, <95, 9, 24, 15, 5, 1, 0, [0, 1, 1, 0]>, <96, 10, 25, 15, 5, 1, 0, [0, 1, 1, 0]>, <97, 11, 26, 15, 5, 1, 0, [0, 1, 1, 0]>, <98, 12, 27, 15, 5, 1, 0, [0, 1, 1, 0]>, <99, 13, 28, 15, 5, 1, 0, [0, 1, 1, 0]>, <100, 14, 29, 15, 5, 1, 0, [0, 1, 1, 0]>, <101, 0, 14, 14, 6, 0, 0, [0, 0, 1, 1]>, <102, 1, 15, 14, 6, 0, 0, [0, 0, 1, 1]>, <103, 2, 16, 14, 6, 0, 0, [0, 0, 1, 1]>, <104, 3, 17, 14, 6, 0, 0, [0, 0, 1, 1]>, <105, 4, 18, 14, 6, 0, 0, [0, 0, 1, 1]>, <106, 5, 19, 14, 6, 0, 0, [0, 0, 1, 1]>, <107, 6, 20, 14, 6, 0, 0, [0, 0, 1, 1]>, <108, 7, 21, 14, 6, 0, 0, [0, 0, 1, 1]>, <109, 8, 22, 14, 6, 0, 0, [0, 0, 1, 1]>, <110, 9, 23, 14, 6, 0, 0, [0, 0, 1, 1]>, <111, 10, 24, 14, 6, 0, 0, [0, 0, 1, 1]>, <112, 11, 25, 14, 6, 0, 0, [0, 0, 1, 1]>, <113, 12, 26, 14, 6, 0, 0, [0, 0, 1, 1]>, <114, 13, 27, 14, 6, 0, 0, [0, 0, 1, 1]>, <115, 14, 28, 14, 6, 0, 0, [0, 0, 1, 1]>, <116, 15, 29, 14, 6, 0, 0, [0, 0, 1, 1]>, <117, 0, 17, 17, 7, 0, 1, [0, 1, 1, 0]>, <118, 1, 18, 17, 7, 0, 1, [0, 1, 1, 0]>, <119, 2, 19, 17, 7, 0, 1, [0, 1, 1, 0]>, <120, 3, 20, 17, 7, 0, 1, [0, 1, 1, 0]>, <121, 4, 21, 17, 7, 0, 1, [0, 1, 1, 0]>, <122, 5, 22, 17, 7, 0, 1, [0, 1, 1, 0]>, <123, 6, 23, 17, 7, 0, 1, [0, 1, 1, 0]>, <124, 7, 24, 17, 7, 0, 1, [0, 1, 1, 0]>, <125, 8, 25, 17, 7, 0, 1, [0, 1, 1, 0]>, <126, 9, 26, 17, 7, 0, 1, [0, 1, 1, 0]>, <127, 10, 27, 17, 7, 0, 1, [0, 1, 1, 0]>, <128, 11, 28, 17, 7, 0, 1, [0, 1, 1, 0]>, <129, 12, 29, 17, 7, 0, 1, [0, 1, 1, 0]>};
